PROBLEM NAME: 	d198-TTP
KNAPSACK DATA TYPE: uncorrelated
DIMENSION:	198
NUMBER OF ITEMS: 	591
CAPACITY OF KNAPSACK: 	158018
MIN SPEED: 	0.1
MAX SPEED: 	1
RENTING RATIO: 	4.79
EDGE_WEIGHT_TYPE:	CEIL_2D
NODE_COORD_SECTION	(INDEX, X, Y): 
1	0.00000e+00	0.00000e+00
2	5.51200e+02	9.96400e+02
3	6.27400e+02	9.96400e+02
4	7.03600e+02	9.96400e+02
5	7.03600e+02	1.04720e+03
6	6.27400e+02	1.04720e+03
7	5.51200e+02	1.04720e+03
8	8.81400e+02	1.35200e+03
9	9.32200e+02	1.35200e+03
10	9.57600e+02	1.35200e+03
11	9.83000e+02	1.35200e+03
12	1.00840e+03	1.35200e+03
13	1.03380e+03	1.35200e+03
14	1.31320e+03	1.12340e+03
15	1.28780e+03	1.09800e+03
16	1.28780e+03	9.96400e+02
17	1.31320e+03	9.96400e+02
18	1.46560e+03	9.96400e+02
19	1.51640e+03	9.96400e+02
20	1.59260e+03	9.96400e+02
21	1.59260e+03	1.09800e+03
22	1.51640e+03	1.09800e+03
23	1.46560e+03	1.09800e+03
24	1.56720e+03	1.12340e+03
25	1.59260e+03	1.14880e+03
26	1.56720e+03	1.17420e+03
27	1.54180e+03	1.17420e+03
28	1.49100e+03	1.17420e+03
29	1.44020e+03	1.17420e+03
30	1.46560e+03	1.19960e+03
31	1.41480e+03	1.22500e+03
32	1.44020e+03	1.22500e+03
33	1.49100e+03	1.22500e+03
34	1.51640e+03	1.22500e+03
35	1.59260e+03	1.25040e+03
36	1.46560e+03	1.25040e+03
37	1.44020e+03	1.25040e+03
38	1.38940e+03	1.25040e+03
39	1.54180e+03	1.27580e+03
40	1.16080e+03	1.12340e+03
41	1.16080e+03	1.22500e+03
42	1.26240e+03	1.30120e+03
43	1.28780e+03	1.30120e+03
44	1.33860e+03	1.30120e+03
45	1.41480e+03	1.30120e+03
46	1.49100e+03	1.30120e+03
47	1.54180e+03	1.30120e+03
48	1.64340e+03	1.30120e+03
49	1.66880e+03	1.32660e+03
50	1.61800e+03	1.32660e+03
51	1.56720e+03	1.32660e+03
52	1.51640e+03	1.32660e+03
53	1.46560e+03	1.32660e+03
54	1.41480e+03	1.32660e+03
55	1.33860e+03	1.32660e+03
56	1.31320e+03	1.32660e+03
57	1.23700e+03	1.32660e+03
58	1.23700e+03	1.35200e+03
59	1.31320e+03	1.35200e+03
60	1.33860e+03	1.35200e+03
61	1.41480e+03	1.35200e+03
62	1.46560e+03	1.35200e+03
63	1.69420e+03	1.35200e+03
64	1.61800e+03	1.37740e+03
65	1.51640e+03	1.37740e+03
66	1.41480e+03	1.37740e+03
67	1.33860e+03	1.37740e+03
68	1.31320e+03	1.37740e+03
69	1.23700e+03	1.37740e+03
70	1.35770e+03	1.39010e+03
71	1.23700e+03	1.40280e+03
72	1.31320e+03	1.40280e+03
73	1.33860e+03	1.40280e+03
74	1.41480e+03	1.40280e+03
75	1.46560e+03	1.40280e+03
76	1.56720e+03	1.40280e+03
77	1.59260e+03	1.40280e+03
78	1.61800e+03	1.40280e+03
79	1.69420e+03	1.42820e+03
80	1.66880e+03	1.42820e+03
81	1.54180e+03	1.42820e+03
82	1.44020e+03	1.42820e+03
83	1.41480e+03	1.42820e+03
84	1.33860e+03	1.42820e+03
85	1.26240e+03	1.42820e+03
86	1.23700e+03	1.45360e+03
87	1.33860e+03	1.45360e+03
88	1.41480e+03	1.45360e+03
89	1.46560e+03	1.45360e+03
90	1.49100e+03	1.45360e+03
91	1.66880e+03	1.45360e+03
92	1.69420e+03	1.45360e+03
93	1.61800e+03	1.47900e+03
94	1.59260e+03	1.47900e+03
95	1.56720e+03	1.47900e+03
96	1.51640e+03	1.47900e+03
97	1.44020e+03	1.47900e+03
98	1.41480e+03	1.47900e+03
99	1.33860e+03	1.47900e+03
100	1.26240e+03	1.47900e+03
101	1.59260e+03	1.50440e+03
102	1.61800e+03	1.50440e+03
103	1.66880e+03	1.52980e+03
104	1.69420e+03	1.52980e+03
105	1.74500e+03	1.52980e+03
106	1.82120e+03	1.52980e+03
107	1.84660e+03	1.52980e+03
108	1.94820e+03	1.52980e+03
109	1.92280e+03	1.55520e+03
110	1.89740e+03	1.55520e+03
111	1.87200e+03	1.55520e+03
112	1.82120e+03	1.55520e+03
113	1.79580e+03	1.55520e+03
114	1.77040e+03	1.55520e+03
115	1.77040e+03	1.65680e+03
116	1.79580e+03	1.65680e+03
117	1.82120e+03	1.65680e+03
118	1.87200e+03	1.65680e+03
119	1.89740e+03	1.65680e+03
120	1.92280e+03	1.65680e+03
121	1.80850e+03	1.69490e+03
122	1.75770e+03	1.69490e+03
123	1.88470e+03	1.73300e+03
124	1.99900e+03	1.73300e+03
125	2.07520e+03	1.73300e+03
126	2.11330e+03	1.73300e+03
127	2.17680e+03	1.73300e+03
128	2.23650e+03	1.73300e+03
129	2.17680e+03	1.78380e+03
130	2.12600e+03	1.78380e+03
131	2.10060e+03	1.78380e+03
132	2.10060e+03	1.80920e+03
133	2.12600e+03	1.80920e+03
134	2.10060e+03	1.83460e+03
135	2.12600e+03	1.83460e+03
136	2.15140e+03	1.83460e+03
137	2.23650e+03	1.84730e+03
138	1.99900e+03	1.84730e+03
139	1.88470e+03	1.84730e+03
140	2.10060e+03	1.86000e+03
141	2.12600e+03	1.86000e+03
142	2.10060e+03	1.88540e+03
143	2.12600e+03	1.88540e+03
144	2.17680e+03	1.88540e+03
145	2.15140e+03	1.91080e+03
146	2.12600e+03	1.91080e+03
147	2.10060e+03	1.91080e+03
148	2.10060e+03	1.93620e+03
149	2.12600e+03	1.93620e+03
150	2.17680e+03	1.93620e+03
151	2.22760e+03	1.93620e+03
152	2.12600e+03	1.96160e+03
153	2.10060e+03	1.96160e+03
154	1.79580e+03	1.98700e+03
155	1.82120e+03	1.98700e+03
156	1.84660e+03	1.98700e+03
157	1.87200e+03	1.98700e+03
158	1.89740e+03	1.98700e+03
159	1.94820e+03	1.98700e+03
160	2.05620e+03	1.98700e+03
161	2.10060e+03	1.98700e+03
162	2.12600e+03	1.98700e+03
163	2.25300e+03	1.98700e+03
164	2.30380e+03	1.98700e+03
165	2.38000e+03	1.98700e+03
166	2.40540e+03	1.98700e+03
167	2.02440e+03	1.40280e+03
168	2.15140e+03	1.40280e+03
169	2.07520e+03	1.70760e+03
170	2.17680e+03	1.70760e+03
171	2.35080e+03	1.73300e+03
172	2.35080e+03	1.84730e+03
173	3.65210e+03	1.01030e+03
174	3.72570e+03	1.01030e+03
175	3.72570e+03	1.08650e+03
176	3.65210e+03	1.08650e+03
177	3.72620e+03	1.14880e+03
178	3.80240e+03	1.14880e+03
179	3.85320e+03	1.14880e+03
180	3.80240e+03	1.17420e+03
181	3.70080e+03	1.17420e+03
182	3.60560e+03	1.19960e+03
183	3.70080e+03	1.19960e+03
184	3.80240e+03	1.19960e+03
185	3.85320e+03	1.19960e+03
186	4.02830e+03	1.31030e+03
187	3.95210e+03	1.31030e+03
188	3.72830e+03	1.31030e+03
189	3.65210e+03	1.31030e+03
190	3.65210e+03	1.38650e+03
191	3.72830e+03	1.38650e+03
192	3.95210e+03	1.38650e+03
193	4.02830e+03	1.38650e+03
194	3.85320e+03	1.12340e+03
195	3.95210e+03	1.08650e+03
196	4.02830e+03	1.08650e+03
197	4.02830e+03	1.01030e+03
198	3.95210e+03	1.01030e+03
ITEMS SECTION	(INDEX, PROFIT, WEIGHT, ASSIGNED NODE NUMBER): 
1	119	1	2
2	187	896	3
3	997	367	4
4	22	690	5
5	347	613	6
6	522	874	7
7	730	122	8
8	705	486	9
9	232	823	10
10	554	463	11
11	675	589	12
12	970	325	13
13	407	1000	14
14	276	776	15
15	331	123	16
16	361	356	17
17	798	305	18
18	427	47	19
19	439	645	20
20	91	139	21
21	650	247	22
22	10	211	23
23	838	100	24
24	725	627	25
25	843	760	26
26	137	776	27
27	977	475	28
28	718	937	29
29	99	101	30
30	609	281	31
31	819	751	32
32	97	530	33
33	975	240	34
34	226	248	35
35	241	768	36
36	584	31	37
37	348	613	38
38	475	881	39
39	178	367	40
40	641	712	41
41	898	410	42
42	250	157	43
43	391	824	44
44	101	242	45
45	636	472	46
46	87	722	47
47	652	775	48
48	867	371	49
49	54	337	50
50	509	885	51
51	989	204	52
52	129	594	53
53	597	226	54
54	513	226	55
55	201	921	56
56	227	537	57
57	82	112	58
58	296	959	59
59	802	392	60
60	537	709	61
61	943	940	62
62	997	943	63
63	642	79	64
64	205	922	65
65	551	361	66
66	904	947	67
67	400	861	68
68	250	937	69
69	586	754	70
70	631	872	71
71	752	636	72
72	510	459	73
73	542	390	74
74	576	141	75
75	550	111	76
76	504	588	77
77	702	6	78
78	20	155	79
79	179	723	80
80	770	723	81
81	95	667	82
82	598	829	83
83	885	487	84
84	239	590	85
85	37	370	86
86	898	823	87
87	923	173	88
88	261	56	89
89	786	977	90
90	46	681	91
91	438	689	92
92	116	933	93
93	503	809	94
94	603	587	95
95	194	686	96
96	341	466	97
97	545	356	98
98	52	784	99
99	810	862	100
100	260	223	101
101	197	541	102
102	213	61	103
103	462	416	104
104	62	62	105
105	203	205	106
106	269	152	107
107	160	913	108
108	747	267	109
109	174	249	110
110	700	187	111
111	114	174	112
112	412	939	113
113	905	519	114
114	109	56	115
115	369	381	116
116	525	551	117
117	987	128	118
118	660	812	119
119	149	753	120
120	764	544	121
121	396	684	122
122	905	830	123
123	30	725	124
124	384	330	125
125	981	115	126
126	483	38	127
127	176	445	128
128	570	619	129
129	891	648	130
130	446	896	131
131	567	658	132
132	646	306	133
133	229	806	134
134	893	800	135
135	723	612	136
136	771	354	137
137	329	300	138
138	279	174	139
139	253	751	140
140	262	126	141
141	802	603	142
142	861	665	143
143	127	209	144
144	131	308	145
145	460	308	146
146	290	677	147
147	296	863	148
148	172	292	149
149	158	444	150
150	241	295	151
151	301	413	152
152	958	72	153
153	694	321	154
154	594	981	155
155	145	797	156
156	819	507	157
157	672	715	158
158	638	512	159
159	645	892	160
160	915	76	161
161	879	22	162
162	14	643	163
163	975	866	164
164	185	74	165
165	466	508	166
166	511	243	167
167	767	776	168
168	579	326	169
169	496	694	170
170	119	662	171
171	829	17	172
172	858	654	173
173	547	129	174
174	801	662	175
175	28	123	176
176	269	182	177
177	113	554	178
178	293	421	179
179	410	685	180
180	850	470	181
181	237	77	182
182	552	264	183
183	117	624	184
184	45	961	185
185	42	55	186
186	722	254	187
187	710	880	188
188	110	921	189
189	800	809	190
190	618	680	191
191	129	554	192
192	887	62	193
193	692	573	194
194	604	568	195
195	35	37	196
196	963	910	197
197	108	632	198
198	411	211	2
199	426	67	3
200	104	763	4
201	208	568	5
202	542	681	6
203	248	814	7
204	237	514	8
205	922	326	9
206	678	41	10
207	392	909	11
208	516	192	12
209	422	59	13
210	582	352	14
211	327	678	15
212	97	885	16
213	378	596	17
214	362	400	18
215	124	411	19
216	376	746	20
217	167	535	21
218	680	82	22
219	679	399	23
220	330	412	24
221	613	636	25
222	345	983	26
223	181	360	27
224	576	120	28
225	698	870	29
226	312	808	30
227	122	4	31
228	158	391	32
229	476	810	33
230	873	819	34
231	477	958	35
232	857	209	36
233	681	717	37
234	3	359	38
235	167	895	39
236	337	419	40
237	134	504	41
238	198	588	42
239	219	719	43
240	151	323	44
241	717	341	45
242	181	965	46
243	39	859	47
244	191	456	48
245	652	760	49
246	293	135	50
247	90	390	51
248	319	780	52
249	516	496	53
250	156	1	54
251	11	906	55
252	526	171	56
253	335	437	57
254	74	164	58
255	968	142	59
256	701	876	60
257	409	265	61
258	722	762	62
259	356	319	63
260	833	780	64
261	512	41	65
262	977	33	66
263	782	720	67
264	974	887	68
265	116	907	69
266	334	551	70
267	400	732	71
268	909	969	72
269	255	679	73
270	32	228	74
271	222	168	75
272	150	654	76
273	100	48	77
274	611	549	78
275	851	260	79
276	766	112	80
277	771	450	81
278	386	925	82
279	791	240	83
280	850	375	84
281	635	875	85
282	317	299	86
283	50	969	87
284	426	215	88
285	791	435	89
286	93	648	90
287	185	515	91
288	582	351	92
289	2	582	93
290	411	32	94
291	992	901	95
292	188	902	96
293	962	494	97
294	620	766	98
295	927	602	99
296	559	494	100
297	711	147	101
298	271	418	102
299	37	628	103
300	497	219	104
301	892	837	105
302	676	340	106
303	63	441	107
304	17	315	108
305	781	109	109
306	958	343	110
307	985	616	111
308	509	532	112
309	608	522	113
310	274	897	114
311	819	514	115
312	353	986	116
313	932	888	117
314	446	759	118
315	981	323	119
316	742	176	120
317	883	919	121
318	978	67	122
319	290	503	123
320	260	556	124
321	155	716	125
322	713	319	126
323	80	471	127
324	479	517	128
325	49	105	129
326	88	153	130
327	182	140	131
328	645	886	132
329	764	692	133
330	950	319	134
331	421	560	135
332	141	642	136
333	184	696	137
334	698	258	138
335	879	250	139
336	9	639	140
337	15	372	141
338	992	132	142
339	883	856	143
340	188	453	144
341	89	503	145
342	916	539	146
343	934	819	147
344	333	126	148
345	877	430	149
346	532	598	150
347	434	696	151
348	458	597	152
349	637	697	153
350	649	52	154
351	290	652	155
352	45	625	156
353	638	91	157
354	406	546	158
355	324	317	159
356	146	313	160
357	181	89	161
358	367	283	162
359	501	917	163
360	950	806	164
361	802	912	165
362	963	511	166
363	144	168	167
364	121	758	168
365	584	392	169
366	418	646	170
367	879	114	171
368	788	5	172
369	906	989	173
370	352	228	174
371	279	131	175
372	588	699	176
373	951	386	177
374	599	229	178
375	752	621	179
376	740	371	180
377	767	574	181
378	848	495	182
379	475	674	183
380	662	255	184
381	612	352	185
382	858	588	186
383	929	176	187
384	467	935	188
385	25	325	189
386	593	167	190
387	858	550	191
388	557	457	192
389	806	478	193
390	776	892	194
391	179	942	195
392	428	991	196
393	857	988	197
394	30	866	198
395	206	123	2
396	189	86	3
397	741	70	4
398	37	186	5
399	446	314	6
400	828	163	7
401	63	119	8
402	246	774	9
403	383	74	10
404	115	661	11
405	163	386	12
406	853	741	13
407	458	541	14
408	160	152	15
409	227	143	16
410	370	131	17
411	918	47	18
412	955	574	19
413	416	229	20
414	366	275	21
415	176	787	22
416	588	661	23
417	462	320	24
418	562	815	25
419	643	699	26
420	17	709	27
421	884	458	28
422	155	323	29
423	560	286	30
424	141	721	31
425	185	907	32
426	528	743	33
427	775	185	34
428	898	843	35
429	872	794	36
430	433	524	37
431	916	233	38
432	888	841	39
433	740	491	40
434	410	427	41
435	482	893	42
436	42	396	43
437	684	25	44
438	917	547	45
439	130	638	46
440	904	590	47
441	199	90	48
442	763	506	49
443	253	615	50
444	399	65	51
445	185	920	52
446	659	968	53
447	877	839	54
448	834	828	55
449	204	52	56
450	201	145	57
451	416	491	58
452	572	263	59
453	623	723	60
454	680	993	61
455	228	935	62
456	987	859	63
457	602	218	64
458	688	535	65
459	228	156	66
460	246	364	67
461	935	315	68
462	472	380	69
463	449	80	70
464	295	17	71
465	914	984	72
466	628	427	73
467	240	675	74
468	106	336	75
469	530	244	76
470	535	672	77
471	226	582	78
472	836	52	79
473	37	487	80
474	738	355	81
475	783	547	82
476	572	736	83
477	87	256	84
478	251	108	85
479	962	153	86
480	836	691	87
481	555	786	88
482	678	654	89
483	904	975	90
484	904	972	91
485	424	585	92
486	871	229	93
487	536	654	94
488	749	469	95
489	436	20	96
490	949	770	97
491	731	162	98
492	539	90	99
493	300	754	100
494	329	267	101
495	389	223	102
496	547	928	103
497	546	15	104
498	924	637	105
499	130	493	106
500	866	208	107
501	357	78	108
502	196	292	109
503	729	349	110
504	588	219	111
505	556	781	112
506	807	591	113
507	316	763	114
508	168	245	115
509	514	382	116
510	573	534	117
511	381	108	118
512	730	852	119
513	883	146	120
514	681	941	121
515	602	15	122
516	12	207	123
517	845	270	124
518	233	856	125
519	674	262	126
520	291	681	127
521	984	431	128
522	633	71	129
523	166	211	130
524	152	53	131
525	798	895	132
526	620	289	133
527	256	621	134
528	764	881	135
529	291	944	136
530	850	962	137
531	958	882	138
532	74	869	139
533	589	645	140
534	450	823	141
535	455	988	142
536	800	467	143
537	652	21	144
538	818	485	145
539	892	879	146
540	693	478	147
541	819	274	148
542	801	991	149
543	432	286	150
544	476	276	151
545	85	339	152
546	923	815	153
547	520	50	154
548	576	478	155
549	672	840	156
550	380	914	157
551	972	373	158
552	141	293	159
553	285	452	160
554	523	495	161
555	123	233	162
556	621	388	163
557	101	41	164
558	849	573	165
559	226	283	166
560	112	434	167
561	773	930	168
562	911	154	169
563	718	123	170
564	26	862	171
565	994	530	172
566	91	104	173
567	84	779	174
568	568	459	175
569	533	823	176
570	939	343	177
571	591	246	178
572	890	883	179
573	32	227	180
574	815	823	181
575	930	32	182
576	386	126	183
577	71	166	184
578	907	324	185
579	777	361	186
580	764	706	187
581	648	503	188
582	322	419	189
583	492	195	190
584	508	945	191
585	810	970	192
586	659	257	193
587	60	41	194
588	882	352	195
589	9	137	196
590	64	192	197
591	60	41	198
